Maximize
	- 1 x1 + 6 x2 - 3 x3 - 2 x4 
Maximize
	- 2 x1 + 4 x2 - 1 x3 
Maximize
	- 1 x1 + 1 x3 - 2 x4 + 4 x5 
Subject To
	- 2 x2 + 4 x3 + 1 x4 + 5 x5 <= 3
Bounds
	0 <= x1 <= 4
	0 <= x2 <= 4
	0 <= x3 <= 4
	0 <= x4 <= 4
	0 <= x5 <= 4
Integers
	x1 x2 x3 x4 x5 
End